100
120
99
98
98
97
97
97
97
97
96
95
95
92
92
92
92
91
91
90
90
89
88
87
85
85
83
82
82
82
82
81
79
77
76
76
75
75
74
74
71
71
70
69
68
66
66
64
63
62
61
61
60
59
56
53
52
51
50
50
48
47
46
43
42
41
41
40
40
40
39
39
38
36
34
34
33
33
33
32
32
32
31
31
30
30
30
29
29
29
27
27
25
24
23
22
22
21
21
21
20
20
